p cnf 10 50
2 9 -6 0
-10 1 -6 0
-8 9 10 0
-4 -9 2 0
-6 -7 -9 0
7 2 6 0
-3 -5 10 0
6 5 8 0
-2 -10 -3 0
-3 -7 -4 0
5 -3 7 0
-4 -3 8 0
1 -10 -8 0
-5 3 2 0
1 5 -3 0
4 -6 -3 0
9 8 4 0
5 -6 7 0
-8 -4 -9 0
8 10 -7 0
10 6 8 0
10 5 -7 0
1 -5 10 0
1 -2 8 0
-4 8 9 0
-7 3 -8 0
-8 -9 6 0
10 -6 -4 0
-9 -2 8 0
7 -6 10 0
-8 -6 -1 0
-6 10 -9 0
-5 8 3 0
-6 8 9 0
-9 1 -3 0
6 1 4 0
-6 -10 5 0
5 -2 -8 0
-3 7 8 0
8 -2 -1 0
1 -5 4 0
-6 4 -5 0
-8 3 1 0
-6 -10 -1 0
-7 -5 6 0
1 -2 -9 0
-7 -5 -10 0
-10 -1 7 0
-10 -8 4 0
-6 4 10 0
